************************************************************************
file with basedata            : n/a
initial value random generator: n/a
************************************************************************
projects                      :  1
jobs (incl. supersource/sink ):  32
horizon                       :  141
RESOURCES
  - renewable                 :  4   R
  - nonrenewable              :  0   N
  - doubly constrained        :  0   D
************************************************************************
PROJECT INFORMATION:
pronr.  #jobs rel.date duedate tardcost  MPM-Time
    1     30      0       43       26       43
************************************************************************
PRECEDENCE RELATIONS:
jobnr.    #modes  #successors   successors
   1        1          3           2   3   4
   2        1          1          29
   3        1          3           5   6   7
   4        1          3          14  20  21
   5        1          3          11  25  31
   6        1          3          16  18  19
   7        1          3           8   9  12
   8        1          1          20
   9        1          1          10
  10        1          2          15  22
  11        1          2          13  26
  12        1          1          18
  13        1          1          15
  14        1          1          22
  15        1          1          17
  16        1          1          24
  17        1          1          24
  18        1          2          21  23
  19        1          1          20
  20        1          1          31
  21        1          1          31
  22        1          1          23
  23        1          2          25  29
  24        1          2          28  30
  25        1          1          26
  26        1          1          27
  27        1          1          30
  28        1          1          29
  29        1          1          32
  30        1          1          32
  31        1          1          32
  32        1          0        
************************************************************************
REQUESTS/DURATIONS:
jobnr. mode duration  R 1  R 2  R 3  R 4
------------------------------------------------------------------------
  1      1     0    
  2      1     6       5   3   5   5   5   5
                       3   2   3   3   3   3
                       4   2   4   4   4   4
                       7   4   7   7   7   7
  3      1     2       1   1
                       2   2
                      10  10
                       5   5
  4      1     9       3   3   3   3   3   3   3   3   3
                       4   4   4   4   4   4   4   4   4
                       7   7   7   7   7   7   7   7   7
                       7   7   7   7   7   7   7   7   7
  5      1     8       2   1   2   2   2   2   2   2
                       8   4   8   8   8   8   8   8
                       3   2   3   3   3   3   3   3
                      10   5  10  10  10  10  10  10
  6      1     1       5
                       3
                       1
                       4
  7      1     4       9   9   9   9
                       1   1   1   1
                       1   1   1   1
                       7   7   7   7
  8      1     2       1   1
                       2   2
                      10  10
                       7   7
  9      1     1       1
                       4
                       6
                       2
 10      1     3       5  10  10
                       1   2   2
                       4   7   7
                       3   5   5
 11      1     2       1   1
                       2   2
                       2   2
                       8   8
 12      1     6       5   9   9   9   5   9
                       1   1   1   1   1   1
                       1   2   2   2   1   2
                       5   9   9   9   5   9
 13      1     5       7   7   7   7   7
                      10  10  10  10  10
                       4   4   4   4   4
                       4   4   4   4   4
 14      1     3       2   2   2
                       3   3   3
                       3   3   3
                       4   4   4
 15      1     1       8
                       5
                       2
                       8
 16      1     7       2   1   2   2   2   2   2
                       1   1   1   1   1   1   1
                       9   5   9   9   9   9   9
                       4   2   4   4   4   4   4
 17      1     2       4   7
                       2   3
                       5  10
                       3   6
 18      1    10       4   4   4   4   4   4   4   4   4   4
                       5   5   5   5   5   5   5   5   5   5
                       3   3   3   3   3   3   3   3   3   3
                       3   3   3   3   3   3   3   3   3   3
 19      1     3       8   8   8
                       8   8   8
                       3   3   3
                      10  10  10
 20      1     8       3   3   3   3   2   3   3   3
                       9   9   9   9   5   9   9   9
                       2   2   2   2   1   2   2   2
                       3   3   3   3   2   3   3   3
 21      1     6       3   3   3   3   3   3
                       2   2   2   2   2   2
                       6   6   6   6   6   6
                       8   8   8   8   8   8
 22      1     6       7   7   7   7   7   7
                      10  10  10  10  10  10
                       7   7   7   7   7   7
                       9   9   9   9   9   9
 23      1     9       7   7   7   7   7   7   7   7   4
                      10  10  10  10  10  10  10  10   5
                       2   2   2   2   2   2   2   2   1
                       9   9   9   9   9   9   9   9   5
 24      1     9       6   6   6   6   6   3   6   6   6
                      10  10  10  10  10   5  10  10  10
                       7   7   7   7   7   4   7   7   7
                      10  10  10  10  10   5  10  10  10
 25      1     1       8
                       3
                       7
                       1
 26      1     7      10  10  10  10   5   5  10
                       9   9   9   9   5   5   9
                       7   7   7   7   4   4   7
                       6   6   6   6   3   3   6
 27      1     2       7   7
                       4   4
                       5   5
                       5   5
 28      1     5       4   4   4   4   4
                       9   9   9   9   9
                       7   7   7   7   7
                       2   2   2   2   2
 29      1     9       4   4   2   4   4   4   4   4   4
                       5   5   3   5   5   5   5   5   5
                       8   8   4   8   8   8   8   8   8
                      10  10   5  10  10  10  10  10  10
 30      1     2       7   7
                       5   5
                       1   1
                       2   2
 31      1     2       5   5
                       1   1
                       5   5
                       4   4
 32      1     0    
************************************************************************
RESOURCEAVAILABILITIES:
  R 1  R 2  R 3  R 4

  20  20  10  20  20  20  20  20  20  20  20  20  10  20  20  20  20  10  20  20  20  10  20  10  10  20  20  20  20  20  20  20  20  20  20  20  20  20  20  20  20  20  20  20  20  20  20  20  20  20  20  20  20  20  20  10  20  20  20  20  20  20  20  20  20  20  20  20  20  20  20  20  10  20  20  20  20  20  20  20  20  20  20  10  20  20  20  20  20  20  20  20  20  20  10  20  20  10  20  20  20  20  20  20  20  20  20  20  20  20  20  20  20  20  20  20  20  20  20  20  20  20  20  20  20  20  20  20  10  20  20  20  20  20  20  20  20  10  20  20  20

  22  22  11  22  22  22  22  22  22  22  22  22  11  22  22  22  22  11  22  22  22  11  22  11  11  22  22  22  22  22  22  22  22  22  22  22  22  22  22  22  22  22  22  22  22  22  22  22  22  22  22  22  22  22  22  11  22  22  22  22  22  22  22  22  22  22  22  22  22  22  22  22  11  22  22  22  22  22  22  22  22  22  22  11  22  22  22  22  22  22  22  22  22  22  11  22  22  11  22  22  22  22  22  22  22  22  22  22  22  22  22  22  22  22  22  22  22  22  22  22  22  22  22  22  22  22  22  22  11  22  22  22  22  22  22  22  22  11  22  22  22

  24  24  12  24  24  24  24  24  24  24  24  24  12  24  24  24  24  12  24  24  24  12  24  12  12  24  24  24  24  24  24  24  24  24  24  24  24  24  24  24  24  24  24  24  24  24  24  24  24  24  24  24  24  24  24  12  24  24  24  24  24  24  24  24  24  24  24  24  24  24  24  24  12  24  24  24  24  24  24  24  24  24  24  12  24  24  24  24  24  24  24  24  24  24  12  24  24  12  24  24  24  24  24  24  24  24  24  24  24  24  24  24  24  24  24  24  24  24  24  24  24  24  24  24  24  24  24  24  12  24  24  24  24  24  24  24  24  12  24  24  24

  28  28  14  28  28  28  28  28  28  28  28  28  14  28  28  28  28  14  28  28  28  14  28  14  14  28  28  28  28  28  28  28  28  28  28  28  28  28  28  28  28  28  28  28  28  28  28  28  28  28  28  28  28  28  28  14  28  28  28  28  28  28  28  28  28  28  28  28  28  28  28  28  14  28  28  28  28  28  28  28  28  28  28  14  28  28  28  28  28  28  28  28  28  28  14  28  28  14  28  28  28  28  28  28  28  28  28  28  28  28  28  28  28  28  28  28  28  28  28  28  28  28  28  28  28  28  28  28  14  28  28  28  28  28  28  28  28  14  28  28  28

************************************************************************
